p edge 22 110
e 1 3
e 1 5
e 1 6
e 1 9
e 1 12
e 2 1
e 2 4
e 2 7
e 2 15
e 2 22
e 3 8
e 3 11
e 3 19
e 3 22
e 3 22
e 4 8
e 4 8
e 4 10
e 4 15
e 4 16
e 5 8
e 5 9
e 5 9
e 5 11
e 5 14
e 6 1
e 6 2
e 6 2
e 6 16
e 6 22
e 7 5
e 7 8
e 7 20
e 7 21
e 7 22
e 8 5
e 8 7
e 8 7
e 8 14
e 8 20
e 9 3
e 9 7
e 9 17
e 9 18
e 9 19
e 10 8
e 10 16
e 10 17
e 10 17
e 10 19
e 11 1
e 11 4
e 11 5
e 11 7
e 11 16
e 12 10
e 12 11
e 12 11
e 12 14
e 12 16
e 13 1
e 13 2
e 13 12
e 13 21
e 13 22
e 14 1
e 14 10
e 14 13
e 14 16
e 14 22
e 15 3
e 15 8
e 15 13
e 15 18
e 15 21
e 16 5
e 16 13
e 16 14
e 16 15
e 16 21
e 17 14
e 17 15
e 17 18
e 17 21
e 17 22
e 18 7
e 18 8
e 18 9
e 18 21
e 18 22
e 19 5
e 19 7
e 19 9
e 19 10
e 19 17
e 20 10
e 20 15
e 20 17
e 20 21
e 20 21
e 21 6
e 21 6
e 21 8
e 21 9
e 21 19
e 22 4
e 22 8
e 22 9
e 22 16
e 22 19
